32      4       
10      10      10      10      
0       0       0       0       0       4       2       6       30      31      
1       0       1       1       1       1       3       
6       1       4       0       3       2       4       29      
7       8       4       0       5       2       5       28      
6       0       3       7       5       1       7       
7       6       2       0       3       1       7       
5       5       7       5       0       1       8       
6       8       0       2       5       4       9       25      26      27      
8       0       7       3       4       2       10      24      
4       4       6       0       5       3       11      16      23      
9       3       6       2       0       1       12      
10      3       2       0       4       2       13      22      
6       5       5       6       0       1       14      
10      0       3       3       3       2       15      21      
8       3       4       5       0       2       17      18      
3       5       4       0       3       2       21      22      
8       2       5       0       4       1       20      
9       3       2       0       1       1       19      
2       2       5       0       8       1       32      
4       4       3       0       4       1       32      
4       0       6       5       3       1       32      
6       3       6       6       0       1       32      
2       5       0       5       5       1       32      
9       3       0       1       7       1       32      
3       0       4       6       3       1       32      
4       0       2       5       5       1       32      
7       1       0       3       3       1       32      
1       6       0       4       4       1       32      
8       3       3       2       0       1       32      
9       5       3       3       0       1       32      
3       4       3       6       0       1       32      
0       0       0       0       0       0       
